p cnf 60 191
7 -19 
-7 19 
8 -20 
-8 20 
9 -21 
-9 21 
10 -22 
-10 22 
11 -23 
-11 23 
12 -24 
-12 24 
26 -19 
-26 19 
27 -20 
-27 20 
28 -21 
-28 21 
29 -22 
-29 22 
30 -23 
-30 23 
33 -26 
-33 26 
34 -27 
-34 27 
35 -28 
-35 28 
36 -29 
-36 29 
40 -33 
-40 33 
41 -34 
-41 34 
42 -35 
-42 35 
47 -40 
-47 40 
48 -41 
-48 41 
54 -47 
-54 47 
-13 -19 
13 -91 
20 -91 
91 -13 -20 
13 -92 
21 -92 
92 -13 -21 
13 -93 
22 -93 
93 -13 -22 
13 -94 
23 -94 
94 -13 -23 
13 -95 
24 -95 
95 -13 -24 
14 -97 
26 -97 
97 -14 -26 
14 -98 
27 -98 
98 -14 -27 
14 -99 
28 -99 
99 -14 -28 
14 -100 
29 -100 
100 -14 -29 
14 -101 
30 -101 
101 -14 -30 
15 -104 
33 -104 
104 -15 -33 
15 -105 
34 -105 
105 -15 -34 
15 -106 
35 -106 
106 -15 -35 
15 -107 
36 -107 
107 -15 -36 
91 -127 
-91 127 
92 -128 
-92 128 
93 -129 
-93 129 
94 -130 
-94 130 
95 -131 
-95 131 
-57 127 
-57 127 97 
-57 97 
57 -127 -97 
-58 128 57 
-58 128 98 
-58 98 57 
58 -128 -57 
58 -128 -98 
58 -98 -57 
-59 129 58 
-59 129 99 
-59 99 58 
59 -129 -58 
59 -129 -99 
59 -99 -58 
-60 130 59 
-60 130 100 
-60 100 59 
60 -130 -59 
60 -130 -100 
60 -100 -59 
-131 -60 
-131 -101 
-101 -60 
97 127 
-97 -127 
134 98 128 -57 
134 98 -128 57 
134 -98 128 57 
134 -98 -128 -57 
-134 98 128 57 
-134 98 -128 -57 
-134 -98 128 -57 
-134 -98 -128 57 
135 99 129 -58 
135 99 -129 58 
135 -99 129 58 
135 -99 -129 -58 
-135 99 129 58 
-135 99 -129 -58 
-135 -99 129 -58 
-135 -99 -129 58 
136 100 130 -59 
136 100 -130 59 
136 -100 130 59 
136 -100 -130 -59 
-136 100 130 59 
-136 100 -130 -59 
-136 -100 130 -59 
-136 -100 -130 59 
137 101 131 -60 
137 101 -131 60 
137 -101 131 60 
137 -101 -131 -60 
-137 101 131 60 
-137 101 -131 -60 
-137 -101 131 -60 
-137 -101 -131 60 
-65 134 
-65 134 104 
-65 104 
65 -134 -104 
-66 135 65 
-66 135 105 
-66 105 65 
66 -135 -65 
66 -135 -105 
66 -105 -65 
-67 136 66 
-67 136 106 
-67 106 66 
67 -136 -66 
67 -136 -106 
67 -106 -66 
-137 -67 
-137 -107 
-107 -67 
104 -134 
-104 134 
105 135 65 
105 -135 -65 
-105 135 -65 
-105 -135 65 
106 136 -66 
106 -136 66 
-106 136 66 
-106 -136 -66 
107 137 67 
107 -137 -67 
-107 137 -67 
-107 -137 67 
-11 -15 
-12 -14 
-12 -15 
-13 14 15 
